nN = 10;
nR = 50;
nH = 1;

a = [[22, 11, 13, 14, 17, 24, 23, 14, 15, 16, 18, 18, 21, 19, 20, 11, 11, 23, 25, 15, 22, 12, 23, 11, 14, 12, 15, 14, 21, 12, 17, 14, 18, 16, 22, 16, 21, 15, 19, 17, 14, 14, 24, 19, 15, 15, 16, 18, 18, 16], [12, 15, 24, 22, 23, 15, 22, 16, 22, 14, 12, 24, 16, 23, 17, 11, 19, 14, 20, 15, 18, 23, 17, 18, 24, 14, 22, 16, 14, 11, 18, 11, 23, 10, 18, 23, 19, 18, 14, 12, 21, 19, 19, 12, 14, 13, 19, 13, 19, 24], [16, 25, 18, 14, 11, 14, 14, 22, 23, 15, 13, 14, 19, 19, 15, 15, 20, 25, 19, 17, 13, 14, 20, 16, 18, 21, 25, 13, 10, 15, 12, 14, 15, 15, 16, 20, 13, 16, 14, 15, 18, 17, 11, 23, 10, 24, 12, 24, 11, 19], [20, 12, 11, 25, 11, 24, 25, 20, 20, 23, 23, 23, 25, 12, 11, 18, 16, 16, 13, 15, 24, 23, 16, 20, 12, 18, 16, 17, 12, 24, 11, 19, 23, 20, 15, 12, 18, 23, 15, 16, 23, 23, 14, 13, 16, 16, 17, 19, 24, 19], [20, 11, 13, 21, 19, 11, 16, 24, 22, 20, 14, 17, 20, 13, 17, 13, 18, 11, 18, 16, 18, 24, 11, 24, 12, 25, 21, 15, 13, 13, 12, 17, 14, 24, 13, 20, 17, 22, 23, 10, 16, 15, 20, 21, 24, 15, 16, 15, 12, 15], [21, 25, 20, 20, 16, 10, 13, 25, 20, 11, 24, 13, 18, 16, 25, 10, 14, 10, 15, 21, 20, 12, 11, 14, 14, 10, 16, 11, 17, 11, 11, 15, 13, 20, 20, 20, 12, 11, 19, 18, 21, 24, 18, 12, 16, 19, 10, 16, 12, 10], [11, 19, 16, 17, 23, 10, 17, 23, 15, 15, 14, 16, 16, 20, 20, 13, 15, 17, 18, 15, 10, 24, 17, 12, 25, 13, 14, 18, 20, 14, 16, 24, 13, 11, 12, 16, 18, 22, 17, 22, 23, 21, 10, 18, 22, 15, 13, 21, 13, 18], [22, 24, 11, 22, 14, 21, 17, 22, 21, 23, 15, 20, 12, 24, 11, 24, 21, 22, 11, 16, 15, 14, 19, 23, 21, 15, 13, 13, 23, 24, 22, 16, 17, 21, 23, 11, 19, 16, 15, 16, 18, 16, 19, 11, 20, 25, 18, 17, 15, 22], [15, 18, 13, 11, 16, 19, 14, 23, 13, 10, 19, 22, 17, 15, 23, 21, 16, 20, 24, 16, 14, 10, 14, 21, 20, 13, 24, 24, 19, 23, 11, 24, 22, 14, 21, 14, 10, 22, 25, 11, 17, 13, 20, 21, 12, 14, 10, 25, 24, 22], [16, 19, 16, 22, 13, 12, 16, 19, 22, 22, 13, 19, 25, 16, 16, 11, 13, 13, 22, 22, 21, 18, 17, 18, 16, 13, 24, 11, 13, 15, 18, 20, 18, 18, 24, 25, 15, 17, 25, 23, 11, 19, 21, 19, 16, 13, 25, 14, 24, 22]];
c = [[[0, 0, 0, 0, 0, 0, 0, 0, 0, 0, 0, 0, 0, 0, 0, 0, 0, 0, 0, 0, 0, 0, 0, 0, 0, 0, 0, 0, 0, 0, 0, 0, 0, 0, 0, 0, 0, 0, 0, 0, 0, 0, 0, 0, 0, 0, 0, 0, 0, 0], [40, 43, 38, 50, 46, 47, 39, 46, 40, 49, 39, 41, 42, 44, 43, 30, 48, 45, 35, 35, 44, 42, 43, 40, 46, 31, 45, 38, 37, 37, 50, 34, 32, 31, 34, 32, 30, 31, 33, 47, 32, 41, 36, 37, 41, 49, 34, 45, 36, 35], [34, 36, 48, 30, 36, 50, 39, 40, 45, 44, 30, 50, 39, 48, 42, 39, 49, 49, 41, 41, 40, 40, 39, 48, 44, 30, 34, 34, 49, 32, 34, 45, 34, 32, 46, 49, 50, 50, 47, 39, 43, 41, 40, 30, 37, 35, 37, 47, 38, 50], [48, 44, 39, 30, 33, 44, 39, 43, 47, 35, 41, 38, 45, 43, 30, 34, 49, 46, 49, 44, 36, 43, 42, 31, 37, 42, 43, 46, 39, 47, 41, 46, 38, 45, 44, 40, 31, 40, 36, 50, 37, 32, 36, 47, 49, 40, 49, 42, 42, 47], [44, 43, 40, 38, 42, 30, 34, 46, 36, 34, 49, 30, 37, 49, 41, 31, 38, 49, 37, 33, 35, 36, 43, 49, 30, 36, 33, 30, 33, 33, 39, 33, 49, 32, 31, 37, 40, 39, 44, 44, 47, 35, 49, 34, 38, 35, 43, 36, 45, 32], [42, 34, 45, 42, 30, 43, 35, 40, 30, 49, 42, 33, 44, 39, 32, 48, 30, 44, 47, 40, 35, 39, 41, 46, 41, 36, 47, 34, 39, 42, 31, 36, 38, 30, 49, 50, 33, 47, 42, 34, 33, 33, 32, 37, 44, 50, 34, 49, 33, 37], [30, 36, 31, 34, 42, 43, 37, 40, 32, 44, 40, 33, 50, 44, 30, 37, 50, 30, 32, 44, 33, 37, 33, 36, 33, 30, 32, 33, 37, 35, 32, 45, 30, 30, 40, 43, 39, 36, 42, 35, 46, 33, 40, 30, 33, 36, 38, 31, 31, 40], [35, 31, 31, 39, 37, 30, 34, 41, 49, 33, 44, 46, 44, 35, 47, 39, 48, 44, 37, 30, 35, 30, 49, 37, 42, 33, 35, 47, 47, 31, 42, 42, 40, 38, 44, 44, 30, 44, 45, 46, 37, 43, 43, 35, 33, 35, 35, 47, 50, 36], [35, 49, 34, 32, 31, 32, 30, 30, 37, 45, 43, 36, 32, 42, 44, 35, 45, 46, 47, 34, 43, 34, 42, 45, 37, 34, 39, 32, 37, 41, 31, 49, 41, 30, 44, 38, 43, 36, 50, 43, 30, 33, 48, 31, 44, 34, 46, 50, 49, 37], [45, 33, 33, 36, 32, 34, 34, 38, 45, 30, 39, 33, 44, 31, 46, 49, 41, 45, 50, 48, 42, 41, 41, 30, 37, 36, 50, 37, 44, 37, 35, 36, 50, 34, 39, 34, 32, 41, 40, 48, 30, 38, 49, 33, 30, 34, 38, 45, 33, 38]], [[0, 0, 0, 0, 0, 0, 0, 0, 0, 0, 0, 0, 0, 0, 0, 0, 0, 0, 0, 0, 0, 0, 0, 0, 0, 0, 0, 0, 0, 0, 0, 0, 0, 0, 0, 0, 0, 0, 0, 0, 0, 0, 0, 0, 0, 0, 0, 0, 0, 0], [0, 0, 0, 0, 0, 0, 0, 0, 0, 0, 0, 0, 0, 0, 0, 0, 0, 0, 0, 0, 0, 0, 0, 0, 0, 0, 0, 0, 0, 0, 0, 0, 0, 0, 0, 0, 0, 0, 0, 0, 0, 0, 0, 0, 0, 0, 0, 0, 0, 0], [41, 36, 40, 34, 38, 30, 48, 30, 36, 40, 36, 49, 50, 39, 44, 49, 45, 42, 50, 31, 41, 39, 36, 34, 39, 38, 39, 43, 30, 39, 30, 46, 50, 43, 31, 36, 49, 33, 31, 42, 36, 35, 32, 44, 39, 38, 38, 37, 48, 47], [37, 42, 32, 33, 30, 32, 45, 43, 37, 34, 33, 30, 46, 35, 41, 30, 32, 48, 37, 34, 36, 36, 36, 47, 44, 50, 31, 44, 40, 38, 41, 35, 44, 40, 45, 42, 48, 40, 50, 31, 31, 35, 41, 35, 32, 41, 45, 47, 45, 47], [42, 50, 41, 49, 39, 44, 41, 39, 47, 35, 44, 43, 41, 35, 49, 32, 46, 34, 50, 44, 48, 35, 40, 30, 42, 35, 42, 41, 49, 40, 49, 41, 31, 30, 40, 43, 33, 31, 30, 31, 46, 35, 49, 45, 50, 47, 34, 30, 43, 35], [50, 41, 48, 48, 50, 49, 43, 50, 37, 34, 31, 32, 42, 31, 34, 45, 32, 30, 48, 37, 36, 30, 45, 42, 40, 35, 32, 30, 47, 35, 43, 33, 49, 45, 30, 39, 31, 42, 41, 37, 49, 39, 34, 33, 45, 36, 48, 43, 41, 44], [35, 31, 31, 36, 31, 33, 50, 48, 49, 43, 43, 38, 34, 38, 46, 50, 41, 30, 30, 40, 32, 42, 49, 38, 33, 46, 41, 33, 44, 46, 32, 34, 42, 37, 37, 35, 47, 34, 36, 43, 42, 36, 40, 42, 31, 40, 36, 47, 45, 39], [39, 44, 43, 37, 48, 41, 45, 31, 41, 32, 36, 43, 46, 30, 31, 43, 34, 47, 48, 31, 30, 43, 45, 30, 30, 40, 32, 49, 49, 35, 48, 40, 49, 32, 48, 36, 44, 41, 44, 32, 42, 30, 44, 40, 45, 35, 42, 49, 31, 46], [47, 34, 45, 36, 38, 31, 50, 38, 50, 44, 32, 36, 38, 40, 41, 44, 43, 40, 34, 41, 36, 38, 50, 41, 42, 30, 47, 47, 32, 32, 45, 35, 33, 43, 32, 41, 32, 32, 30, 32, 49, 40, 48, 44, 40, 44, 43, 43, 44, 37], [43, 50, 37, 40, 40, 32, 34, 30, 33, 30, 38, 32, 47, 33, 33, 50, 37, 44, 32, 43, 30, 31, 44, 30, 37, 36, 47, 32, 30, 46, 33, 34, 44, 49, 46, 50, 36, 35, 37, 46, 45, 41, 31, 42, 47, 45, 36, 39, 49, 31]], [[0, 0, 0, 0, 0, 0, 0, 0, 0, 0, 0, 0, 0, 0, 0, 0, 0, 0, 0, 0, 0, 0, 0, 0, 0, 0, 0, 0, 0, 0, 0, 0, 0, 0, 0, 0, 0, 0, 0, 0, 0, 0, 0, 0, 0, 0, 0, 0, 0, 0], [0, 0, 0, 0, 0, 0, 0, 0, 0, 0, 0, 0, 0, 0, 0, 0, 0, 0, 0, 0, 0, 0, 0, 0, 0, 0, 0, 0, 0, 0, 0, 0, 0, 0, 0, 0, 0, 0, 0, 0, 0, 0, 0, 0, 0, 0, 0, 0, 0, 0], [0, 0, 0, 0, 0, 0, 0, 0, 0, 0, 0, 0, 0, 0, 0, 0, 0, 0, 0, 0, 0, 0, 0, 0, 0, 0, 0, 0, 0, 0, 0, 0, 0, 0, 0, 0, 0, 0, 0, 0, 0, 0, 0, 0, 0, 0, 0, 0, 0, 0], [44, 45, 33, 46, 45, 40, 35, 40, 43, 37, 34, 32, 49, 33, 49, 31, 36, 33, 40, 43, 37, 33, 31, 36, 35, 30, 48, 33, 33, 33, 46, 45, 47, 37, 38, 32, 33, 39, 34, 50, 43, 47, 50, 33, 36, 48, 39, 44, 40, 32], [47, 30, 48, 44, 43, 45, 39, 32, 43, 40, 49, 47, 45, 34, 48, 32, 38, 33, 50, 45, 50, 45, 37, 46, 35, 43, 49, 42, 49, 40, 36, 43, 30, 49, 43, 45, 48, 47, 32, 34, 38, 34, 37, 48, 37, 40, 39, 43, 36, 30], [31, 35, 48, 43, 42, 42, 30, 38, 37, 34, 48, 33, 37, 30, 47, 47, 44, 31, 34, 43, 41, 44, 42, 50, 49, 33, 40, 47, 44, 30, 50, 34, 40, 47, 49, 40, 31, 44, 32, 40, 48, 41, 48, 42, 39, 47, 36, 46, 50, 43], [49, 42, 45, 44, 35, 35, 31, 38, 30, 33, 39, 45, 36, 45, 42, 35, 50, 45, 33, 50, 32, 40, 46, 42, 45, 50, 31, 45, 45, 45, 43, 30, 30, 49, 46, 39, 37, 48, 32, 40, 38, 30, 37, 39, 37, 30, 38, 50, 49, 35], [34, 34, 40, 42, 43, 47, 32, 50, 49, 45, 39, 38, 34, 49, 40, 47, 45, 36, 43, 32, 48, 38, 50, 49, 43, 44, 41, 39, 41, 45, 40, 36, 47, 39, 45, 47, 42, 38, 44, 48, 37, 40, 35, 47, 42, 36, 35, 36, 46, 46], [50, 42, 42, 31, 40, 31, 43, 36, 41, 46, 48, 45, 48, 38, 31, 38, 44, 43, 36, 34, 30, 34, 30, 46, 42, 44, 38, 49, 41, 40, 49, 37, 48, 31, 36, 43, 37, 47, 35, 34, 48, 30, 40, 40, 38, 45, 50, 48, 35, 45], [34, 36, 48, 44, 42, 46, 43, 39, 37, 38, 33, 46, 41, 50, 44, 34, 40, 50, 44, 41, 34, 32, 37, 46, 36, 49, 31, 30, 33, 48, 30, 31, 38, 38, 49, 30, 37, 41, 39, 36, 46, 38, 46, 44, 42, 44, 49, 34, 43, 32]], [[0, 0, 0, 0, 0, 0, 0, 0, 0, 0, 0, 0, 0, 0, 0, 0, 0, 0, 0, 0, 0, 0, 0, 0, 0, 0, 0, 0, 0, 0, 0, 0, 0, 0, 0, 0, 0, 0, 0, 0, 0, 0, 0, 0, 0, 0, 0, 0, 0, 0], [0, 0, 0, 0, 0, 0, 0, 0, 0, 0, 0, 0, 0, 0, 0, 0, 0, 0, 0, 0, 0, 0, 0, 0, 0, 0, 0, 0, 0, 0, 0, 0, 0, 0, 0, 0, 0, 0, 0, 0, 0, 0, 0, 0, 0, 0, 0, 0, 0, 0], [0, 0, 0, 0, 0, 0, 0, 0, 0, 0, 0, 0, 0, 0, 0, 0, 0, 0, 0, 0, 0, 0, 0, 0, 0, 0, 0, 0, 0, 0, 0, 0, 0, 0, 0, 0, 0, 0, 0, 0, 0, 0, 0, 0, 0, 0, 0, 0, 0, 0], [0, 0, 0, 0, 0, 0, 0, 0, 0, 0, 0, 0, 0, 0, 0, 0, 0, 0, 0, 0, 0, 0, 0, 0, 0, 0, 0, 0, 0, 0, 0, 0, 0, 0, 0, 0, 0, 0, 0, 0, 0, 0, 0, 0, 0, 0, 0, 0, 0, 0], [31, 40, 31, 48, 48, 39, 30, 30, 48, 42, 45, 36, 40, 37, 44, 40, 41, 38, 30, 31, 33, 50, 50, 41, 34, 40, 44, 48, 38, 35, 45, 45, 31, 35, 37, 38, 31, 36, 38, 50, 33, 50, 33, 44, 46, 43, 33, 35, 50, 35], [49, 34, 35, 43, 50, 32, 43, 49, 48, 41, 47, 49, 30, 40, 48, 39, 34, 46, 47, 33, 43, 39, 37, 47, 45, 47, 36, 40, 46, 49, 40, 32, 39, 40, 32, 47, 50, 31, 31, 39, 50, 34, 45, 36, 43, 45, 37, 33, 44, 42], [50, 48, 30, 50, 50, 36, 42, 38, 48, 42, 40, 45, 33, 36, 37, 39, 38, 34, 45, 47, 30, 31, 43, 41, 31, 37, 33, 36, 44, 36, 33, 43, 41, 46, 30, 36, 35, 50, 39, 47, 41, 40, 39, 39, 50, 49, 46, 37, 49, 50], [32, 37, 32, 44, 34, 31, 49, 30, 32, 43, 31, 50, 30, 44, 45, 49, 49, 49, 38, 37, 46, 34, 34, 41, 36, 32, 31, 40, 43, 39, 50, 44, 45, 31, 38, 36, 37, 45, 37, 33, 32, 45, 39, 37, 48, 40, 45, 40, 39, 31], [50, 43, 32, 46, 36, 42, 40, 31, 32, 33, 46, 47, 46, 37, 38, 37, 34, 47, 38, 37, 44, 33, 34, 34, 30, 50, 38, 47, 45, 38, 45, 31, 32, 40, 36, 39, 35, 42, 33, 45, 43, 34, 44, 41, 39, 48, 41, 42, 31, 44], [40, 46, 49, 31, 37, 43, 39, 38, 46, 30, 46, 50, 34, 45, 44, 42, 42, 49, 46, 41, 40, 33, 35, 49, 48, 32, 31, 44, 45, 43, 50, 34, 43, 48, 43, 48, 31, 36, 47, 30, 39, 41, 50, 48, 33, 33, 37, 33, 36, 37]], [[0, 0, 0, 0, 0, 0, 0, 0, 0, 0, 0, 0, 0, 0, 0, 0, 0, 0, 0, 0, 0, 0, 0, 0, 0, 0, 0, 0, 0, 0, 0, 0, 0, 0, 0, 0, 0, 0, 0, 0, 0, 0, 0, 0, 0, 0, 0, 0, 0, 0], [0, 0, 0, 0, 0, 0, 0, 0, 0, 0, 0, 0, 0, 0, 0, 0, 0, 0, 0, 0, 0, 0, 0, 0, 0, 0, 0, 0, 0, 0, 0, 0, 0, 0, 0, 0, 0, 0, 0, 0, 0, 0, 0, 0, 0, 0, 0, 0, 0, 0], [0, 0, 0, 0, 0, 0, 0, 0, 0, 0, 0, 0, 0, 0, 0, 0, 0, 0, 0, 0, 0, 0, 0, 0, 0, 0, 0, 0, 0, 0, 0, 0, 0, 0, 0, 0, 0, 0, 0, 0, 0, 0, 0, 0, 0, 0, 0, 0, 0, 0], [0, 0, 0, 0, 0, 0, 0, 0, 0, 0, 0, 0, 0, 0, 0, 0, 0, 0, 0, 0, 0, 0, 0, 0, 0, 0, 0, 0, 0, 0, 0, 0, 0, 0, 0, 0, 0, 0, 0, 0, 0, 0, 0, 0, 0, 0, 0, 0, 0, 0], [0, 0, 0, 0, 0, 0, 0, 0, 0, 0, 0, 0, 0, 0, 0, 0, 0, 0, 0, 0, 0, 0, 0, 0, 0, 0, 0, 0, 0, 0, 0, 0, 0, 0, 0, 0, 0, 0, 0, 0, 0, 0, 0, 0, 0, 0, 0, 0, 0, 0], [42, 36, 39, 37, 50, 49, 48, 39, 43, 43, 32, 40, 34, 43, 34, 37, 33, 47, 47, 50, 39, 49, 45, 43, 48, 43, 42, 36, 39, 34, 39, 45, 50, 35, 43, 31, 38, 44, 38, 33, 35, 35, 42, 44, 40, 37, 32, 34, 40, 48], [49, 36, 44, 50, 37, 35, 35, 38, 36, 41, 37, 50, 38, 40, 30, 32, 45, 48, 36, 40, 40, 35, 31, 37, 45, 38, 38, 47, 39, 46, 50, 46, 40, 50, 40, 35, 30, 32, 32, 33, 30, 43, 42, 44, 30, 31, 34, 45, 41, 32], [43, 35, 35, 34, 42, 49, 45, 39, 40, 42, 32, 50, 47, 42, 34, 47, 34, 41, 30, 38, 31, 39, 38, 44, 38, 37, 47, 30, 36, 44, 45, 32, 44, 48, 31, 31, 39, 36, 35, 35, 41, 39, 38, 49, 50, 43, 40, 39, 34, 39], [41, 37, 47, 49, 44, 44, 37, 32, 41, 39, 48, 47, 38, 49, 46, 43, 41, 49, 40, 39, 37, 40, 44, 44, 31, 38, 30, 33, 48, 30, 33, 38, 33, 30, 46, 49, 34, 48, 49, 35, 42, 39, 33, 38, 49, 33, 50, 32, 42, 49], [34, 43, 34, 35, 42, 47, 42, 33, 30, 40, 40, 50, 39, 48, 50, 45, 43, 43, 46, 46, 31, 45, 34, 45, 35, 46, 50, 32, 44, 44, 49, 38, 30, 37, 37, 49, 44, 44, 35, 40, 41, 35, 31, 31, 33, 32, 42, 32, 34, 46]], [[0, 0, 0, 0, 0, 0, 0, 0, 0, 0, 0, 0, 0, 0, 0, 0, 0, 0, 0, 0, 0, 0, 0, 0, 0, 0, 0, 0, 0, 0, 0, 0, 0, 0, 0, 0, 0, 0, 0, 0, 0, 0, 0, 0, 0, 0, 0, 0, 0, 0], [0, 0, 0, 0, 0, 0, 0, 0, 0, 0, 0, 0, 0, 0, 0, 0, 0, 0, 0, 0, 0, 0, 0, 0, 0, 0, 0, 0, 0, 0, 0, 0, 0, 0, 0, 0, 0, 0, 0, 0, 0, 0, 0, 0, 0, 0, 0, 0, 0, 0], [0, 0, 0, 0, 0, 0, 0, 0, 0, 0, 0, 0, 0, 0, 0, 0, 0, 0, 0, 0, 0, 0, 0, 0, 0, 0, 0, 0, 0, 0, 0, 0, 0, 0, 0, 0, 0, 0, 0, 0, 0, 0, 0, 0, 0, 0, 0, 0, 0, 0], [0, 0, 0, 0, 0, 0, 0, 0, 0, 0, 0, 0, 0, 0, 0, 0, 0, 0, 0, 0, 0, 0, 0, 0, 0, 0, 0, 0, 0, 0, 0, 0, 0, 0, 0, 0, 0, 0, 0, 0, 0, 0, 0, 0, 0, 0, 0, 0, 0, 0], [0, 0, 0, 0, 0, 0, 0, 0, 0, 0, 0, 0, 0, 0, 0, 0, 0, 0, 0, 0, 0, 0, 0, 0, 0, 0, 0, 0, 0, 0, 0, 0, 0, 0, 0, 0, 0, 0, 0, 0, 0, 0, 0, 0, 0, 0, 0, 0, 0, 0], [0, 0, 0, 0, 0, 0, 0, 0, 0, 0, 0, 0, 0, 0, 0, 0, 0, 0, 0, 0, 0, 0, 0, 0, 0, 0, 0, 0, 0, 0, 0, 0, 0, 0, 0, 0, 0, 0, 0, 0, 0, 0, 0, 0, 0, 0, 0, 0, 0, 0], [40, 30, 39, 47, 42, 37, 43, 32, 36, 45, 49, 33, 49, 49, 42, 35, 49, 32, 35, 44, 45, 40, 40, 37, 34, 31, 35, 32, 37, 34, 48, 47, 32, 32, 42, 30, 37, 30, 46, 34, 35, 43, 44, 35, 41, 37, 38, 41, 49, 45], [42, 37, 46, 32, 34, 45, 44, 35, 32, 50, 39, 47, 40, 42, 34, 40, 43, 44, 42, 30, 50, 40, 32, 36, 50, 30, 39, 38, 44, 34, 39, 35, 45, 38, 48, 45, 45, 37, 35, 37, 39, 43, 34, 32, 30, 33, 41, 32, 32, 42], [41, 36, 30, 48, 50, 43, 36, 39, 45, 41, 49, 44, 46, 44, 37, 42, 47, 45, 38, 39, 39, 38, 30, 42, 33, 42, 46, 32, 49, 32, 40, 35, 36, 31, 30, 43, 35, 49, 43, 32, 33, 48, 32, 38, 46, 40, 50, 32, 30, 40], [46, 47, 31, 30, 43, 38, 34, 49, 47, 32, 36, 43, 45, 34, 30, 35, 43, 39, 34, 40, 40, 47, 39, 47, 33, 42, 41, 50, 50, 33, 45, 36, 35, 41, 45, 34, 30, 30, 38, 35, 49, 50, 44, 50, 39, 47, 33, 35, 49, 30]], [[0, 0, 0, 0, 0, 0, 0, 0, 0, 0, 0, 0, 0, 0, 0, 0, 0, 0, 0, 0, 0, 0, 0, 0, 0, 0, 0, 0, 0, 0, 0, 0, 0, 0, 0, 0, 0, 0, 0, 0, 0, 0, 0, 0, 0, 0, 0, 0, 0, 0], [0, 0, 0, 0, 0, 0, 0, 0, 0, 0, 0, 0, 0, 0, 0, 0, 0, 0, 0, 0, 0, 0, 0, 0, 0, 0, 0, 0, 0, 0, 0, 0, 0, 0, 0, 0, 0, 0, 0, 0, 0, 0, 0, 0, 0, 0, 0, 0, 0, 0], [0, 0, 0, 0, 0, 0, 0, 0, 0, 0, 0, 0, 0, 0, 0, 0, 0, 0, 0, 0, 0, 0, 0, 0, 0, 0, 0, 0, 0, 0, 0, 0, 0, 0, 0, 0, 0, 0, 0, 0, 0, 0, 0, 0, 0, 0, 0, 0, 0, 0], [0, 0, 0, 0, 0, 0, 0, 0, 0, 0, 0, 0, 0, 0, 0, 0, 0, 0, 0, 0, 0, 0, 0, 0, 0, 0, 0, 0, 0, 0, 0, 0, 0, 0, 0, 0, 0, 0, 0, 0, 0, 0, 0, 0, 0, 0, 0, 0, 0, 0], [0, 0, 0, 0, 0, 0, 0, 0, 0, 0, 0, 0, 0, 0, 0, 0, 0, 0, 0, 0, 0, 0, 0, 0, 0, 0, 0, 0, 0, 0, 0, 0, 0, 0, 0, 0, 0, 0, 0, 0, 0, 0, 0, 0, 0, 0, 0, 0, 0, 0], [0, 0, 0, 0, 0, 0, 0, 0, 0, 0, 0, 0, 0, 0, 0, 0, 0, 0, 0, 0, 0, 0, 0, 0, 0, 0, 0, 0, 0, 0, 0, 0, 0, 0, 0, 0, 0, 0, 0, 0, 0, 0, 0, 0, 0, 0, 0, 0, 0, 0], [0, 0, 0, 0, 0, 0, 0, 0, 0, 0, 0, 0, 0, 0, 0, 0, 0, 0, 0, 0, 0, 0, 0, 0, 0, 0, 0, 0, 0, 0, 0, 0, 0, 0, 0, 0, 0, 0, 0, 0, 0, 0, 0, 0, 0, 0, 0, 0, 0, 0], [46, 49, 46, 35, 38, 31, 41, 43, 45, 47, 36, 47, 34, 32, 48, 44, 39, 50, 41, 50, 31, 38, 36, 34, 37, 32, 41, 33, 48, 44, 37, 49, 37, 32, 50, 47, 47, 31, 50, 34, 43, 38, 31, 40, 30, 39, 30, 44, 48, 50], [50, 40, 47, 45, 46, 45, 41, 30, 46, 44, 32, 46, 31, 36, 40, 48, 49, 42, 31, 31, 44, 31, 49, 36, 31, 37, 49, 33, 34, 49, 39, 43, 48, 45, 37, 46, 38, 45, 44, 44, 49, 43, 44, 50, 34, 49, 49, 35, 42, 35], [36, 41, 32, 47, 44, 38, 50, 42, 43, 44, 47, 32, 36, 42, 32, 39, 42, 44, 37, 45, 37, 44, 44, 30, 35, 49, 42, 41, 43, 34, 37, 44, 30, 49, 48, 43, 44, 38, 33, 47, 33, 49, 35, 49, 47, 34, 48, 42, 42, 31]], [[0, 0, 0, 0, 0, 0, 0, 0, 0, 0, 0, 0, 0, 0, 0, 0, 0, 0, 0, 0, 0, 0, 0, 0, 0, 0, 0, 0, 0, 0, 0, 0, 0, 0, 0, 0, 0, 0, 0, 0, 0, 0, 0, 0, 0, 0, 0, 0, 0, 0], [0, 0, 0, 0, 0, 0, 0, 0, 0, 0, 0, 0, 0, 0, 0, 0, 0, 0, 0, 0, 0, 0, 0, 0, 0, 0, 0, 0, 0, 0, 0, 0, 0, 0, 0, 0, 0, 0, 0, 0, 0, 0, 0, 0, 0, 0, 0, 0, 0, 0], [0, 0, 0, 0, 0, 0, 0, 0, 0, 0, 0, 0, 0, 0, 0, 0, 0, 0, 0, 0, 0, 0, 0, 0, 0, 0, 0, 0, 0, 0, 0, 0, 0, 0, 0, 0, 0, 0, 0, 0, 0, 0, 0, 0, 0, 0, 0, 0, 0, 0], [0, 0, 0, 0, 0, 0, 0, 0, 0, 0, 0, 0, 0, 0, 0, 0, 0, 0, 0, 0, 0, 0, 0, 0, 0, 0, 0, 0, 0, 0, 0, 0, 0, 0, 0, 0, 0, 0, 0, 0, 0, 0, 0, 0, 0, 0, 0, 0, 0, 0], [0, 0, 0, 0, 0, 0, 0, 0, 0, 0, 0, 0, 0, 0, 0, 0, 0, 0, 0, 0, 0, 0, 0, 0, 0, 0, 0, 0, 0, 0, 0, 0, 0, 0, 0, 0, 0, 0, 0, 0, 0, 0, 0, 0, 0, 0, 0, 0, 0, 0], [0, 0, 0, 0, 0, 0, 0, 0, 0, 0, 0, 0, 0, 0, 0, 0, 0, 0, 0, 0, 0, 0, 0, 0, 0, 0, 0, 0, 0, 0, 0, 0, 0, 0, 0, 0, 0, 0, 0, 0, 0, 0, 0, 0, 0, 0, 0, 0, 0, 0], [0, 0, 0, 0, 0, 0, 0, 0, 0, 0, 0, 0, 0, 0, 0, 0, 0, 0, 0, 0, 0, 0, 0, 0, 0, 0, 0, 0, 0, 0, 0, 0, 0, 0, 0, 0, 0, 0, 0, 0, 0, 0, 0, 0, 0, 0, 0, 0, 0, 0], [0, 0, 0, 0, 0, 0, 0, 0, 0, 0, 0, 0, 0, 0, 0, 0, 0, 0, 0, 0, 0, 0, 0, 0, 0, 0, 0, 0, 0, 0, 0, 0, 0, 0, 0, 0, 0, 0, 0, 0, 0, 0, 0, 0, 0, 0, 0, 0, 0, 0], [45, 33, 38, 46, 45, 34, 46, 35, 32, 42, 43, 33, 40, 47, 31, 40, 42, 34, 48, 35, 42, 37, 36, 31, 47, 40, 49, 31, 36, 36, 38, 38, 34, 34, 32, 49, 41, 39, 38, 36, 48, 39, 47, 40, 34, 40, 46, 43, 32, 32], [49, 43, 40, 34, 39, 43, 38, 46, 42, 39, 44, 38, 30, 45, 40, 35, 48, 39, 34, 40, 42, 44, 42, 45, 33, 42, 38, 47, 47, 36, 49, 34, 35, 44, 42, 32, 32, 40, 41, 30, 35, 46, 50, 45, 35, 36, 36, 36, 41, 31]], [[0, 0, 0, 0, 0, 0, 0, 0, 0, 0, 0, 0, 0, 0, 0, 0, 0, 0, 0, 0, 0, 0, 0, 0, 0, 0, 0, 0, 0, 0, 0, 0, 0, 0, 0, 0, 0, 0, 0, 0, 0, 0, 0, 0, 0, 0, 0, 0, 0, 0], [0, 0, 0, 0, 0, 0, 0, 0, 0, 0, 0, 0, 0, 0, 0, 0, 0, 0, 0, 0, 0, 0, 0, 0, 0, 0, 0, 0, 0, 0, 0, 0, 0, 0, 0, 0, 0, 0, 0, 0, 0, 0, 0, 0, 0, 0, 0, 0, 0, 0], [0, 0, 0, 0, 0, 0, 0, 0, 0, 0, 0, 0, 0, 0, 0, 0, 0, 0, 0, 0, 0, 0, 0, 0, 0, 0, 0, 0, 0, 0, 0, 0, 0, 0, 0, 0, 0, 0, 0, 0, 0, 0, 0, 0, 0, 0, 0, 0, 0, 0], [0, 0, 0, 0, 0, 0, 0, 0, 0, 0, 0, 0, 0, 0, 0, 0, 0, 0, 0, 0, 0, 0, 0, 0, 0, 0, 0, 0, 0, 0, 0, 0, 0, 0, 0, 0, 0, 0, 0, 0, 0, 0, 0, 0, 0, 0, 0, 0, 0, 0], [0, 0, 0, 0, 0, 0, 0, 0, 0, 0, 0, 0, 0, 0, 0, 0, 0, 0, 0, 0, 0, 0, 0, 0, 0, 0, 0, 0, 0, 0, 0, 0, 0, 0, 0, 0, 0, 0, 0, 0, 0, 0, 0, 0, 0, 0, 0, 0, 0, 0], [0, 0, 0, 0, 0, 0, 0, 0, 0, 0, 0, 0, 0, 0, 0, 0, 0, 0, 0, 0, 0, 0, 0, 0, 0, 0, 0, 0, 0, 0, 0, 0, 0, 0, 0, 0, 0, 0, 0, 0, 0, 0, 0, 0, 0, 0, 0, 0, 0, 0], [0, 0, 0, 0, 0, 0, 0, 0, 0, 0, 0, 0, 0, 0, 0, 0, 0, 0, 0, 0, 0, 0, 0, 0, 0, 0, 0, 0, 0, 0, 0, 0, 0, 0, 0, 0, 0, 0, 0, 0, 0, 0, 0, 0, 0, 0, 0, 0, 0, 0], [0, 0, 0, 0, 0, 0, 0, 0, 0, 0, 0, 0, 0, 0, 0, 0, 0, 0, 0, 0, 0, 0, 0, 0, 0, 0, 0, 0, 0, 0, 0, 0, 0, 0, 0, 0, 0, 0, 0, 0, 0, 0, 0, 0, 0, 0, 0, 0, 0, 0], [0, 0, 0, 0, 0, 0, 0, 0, 0, 0, 0, 0, 0, 0, 0, 0, 0, 0, 0, 0, 0, 0, 0, 0, 0, 0, 0, 0, 0, 0, 0, 0, 0, 0, 0, 0, 0, 0, 0, 0, 0, 0, 0, 0, 0, 0, 0, 0, 0, 0], [41, 34, 48, 44, 34, 32, 37, 36, 50, 34, 34, 39, 39, 32, 42, 40, 38, 30, 44, 41, 39, 34, 36, 47, 31, 31, 33, 31, 38, 31, 36, 47, 34, 49, 31, 45, 44, 49, 47, 47, 35, 45, 31, 35, 41, 42, 45, 40, 32, 35]], [[0, 0, 0, 0, 0, 0, 0, 0, 0, 0, 0, 0, 0, 0, 0, 0, 0, 0, 0, 0, 0, 0, 0, 0, 0, 0, 0, 0, 0, 0, 0, 0, 0, 0, 0, 0, 0, 0, 0, 0, 0, 0, 0, 0, 0, 0, 0, 0, 0, 0], [0, 0, 0, 0, 0, 0, 0, 0, 0, 0, 0, 0, 0, 0, 0, 0, 0, 0, 0, 0, 0, 0, 0, 0, 0, 0, 0, 0, 0, 0, 0, 0, 0, 0, 0, 0, 0, 0, 0, 0, 0, 0, 0, 0, 0, 0, 0, 0, 0, 0], [0, 0, 0, 0, 0, 0, 0, 0, 0, 0, 0, 0, 0, 0, 0, 0, 0, 0, 0, 0, 0, 0, 0, 0, 0, 0, 0, 0, 0, 0, 0, 0, 0, 0, 0, 0, 0, 0, 0, 0, 0, 0, 0, 0, 0, 0, 0, 0, 0, 0], [0, 0, 0, 0, 0, 0, 0, 0, 0, 0, 0, 0, 0, 0, 0, 0, 0, 0, 0, 0, 0, 0, 0, 0, 0, 0, 0, 0, 0, 0, 0, 0, 0, 0, 0, 0, 0, 0, 0, 0, 0, 0, 0, 0, 0, 0, 0, 0, 0, 0], [0, 0, 0, 0, 0, 0, 0, 0, 0, 0, 0, 0, 0, 0, 0, 0, 0, 0, 0, 0, 0, 0, 0, 0, 0, 0, 0, 0, 0, 0, 0, 0, 0, 0, 0, 0, 0, 0, 0, 0, 0, 0, 0, 0, 0, 0, 0, 0, 0, 0], [0, 0, 0, 0, 0, 0, 0, 0, 0, 0, 0, 0, 0, 0, 0, 0, 0, 0, 0, 0, 0, 0, 0, 0, 0, 0, 0, 0, 0, 0, 0, 0, 0, 0, 0, 0, 0, 0, 0, 0, 0, 0, 0, 0, 0, 0, 0, 0, 0, 0], [0, 0, 0, 0, 0, 0, 0, 0, 0, 0, 0, 0, 0, 0, 0, 0, 0, 0, 0, 0, 0, 0, 0, 0, 0, 0, 0, 0, 0, 0, 0, 0, 0, 0, 0, 0, 0, 0, 0, 0, 0, 0, 0, 0, 0, 0, 0, 0, 0, 0], [0, 0, 0, 0, 0, 0, 0, 0, 0, 0, 0, 0, 0, 0, 0, 0, 0, 0, 0, 0, 0, 0, 0, 0, 0, 0, 0, 0, 0, 0, 0, 0, 0, 0, 0, 0, 0, 0, 0, 0, 0, 0, 0, 0, 0, 0, 0, 0, 0, 0], [0, 0, 0, 0, 0, 0, 0, 0, 0, 0, 0, 0, 0, 0, 0, 0, 0, 0, 0, 0, 0, 0, 0, 0, 0, 0, 0, 0, 0, 0, 0, 0, 0, 0, 0, 0, 0, 0, 0, 0, 0, 0, 0, 0, 0, 0, 0, 0, 0, 0], [0, 0, 0, 0, 0, 0, 0, 0, 0, 0, 0, 0, 0, 0, 0, 0, 0, 0, 0, 0, 0, 0, 0, 0, 0, 0, 0, 0, 0, 0, 0, 0, 0, 0, 0, 0, 0, 0, 0, 0, 0, 0, 0, 0, 0, 0, 0, 0, 0, 0]]];

q = [[[5], [16], [18], [15], [20], [23], [6], [14], [23], [20], [9], [14], [20], [24], [7], [20], [22], [23], [14], [8], [18], [11], [16], [12], [15], [21], [15], [17], [14], [5], [16], [6], [25], [22], [11], [17], [9], [10], [23], [12], [23], [21], [6], [18], [19], [9], [8], [18], [15], [15]], [[9], [7], [17], [20], [9], [18], [17], [21], [10], [7], [24], [17], [18], [18], [23], [9], [18], [13], [12], [15], [5], [21], [12], [6], [21], [8], [24], [5], [13], [6], [22], [14], [22], [10], [12], [17], [25], [14], [16], [20], [20], [17], [6], [18], [23], [15], [15], [20], [12], [22]], [[11], [15], [12], [18], [6], [15], [21], [11], [19], [7], [23], [13], [25], [13], [10], [6], [12], [14], [8], [15], [12], [19], [20], [6], [18], [7], [22], [6], [8], [16], [24], [5], [17], [24], [10], [10], [14], [14], [16], [10], [10], [19], [22], [8], [19], [11], [13], [13], [9], [20]], [[17], [25], [10], [7], [9], [6], [19], [13], [21], [13], [17], [16], [20], [5], [18], [12], [7], [11], [14], [12], [11], [22], [22], [23], [9], [8], [6], [8], [20], [15], [10], [12], [16], [21], [14], [21], [22], [10], [14], [13], [20], [25], [6], [24], [23], [25], [18], [24], [7], [10]], [[10], [10], [23], [14], [18], [15], [6], [18], [17], [17], [19], [13], [25], [19], [16], [24], [21], [24], [11], [20], [6], [20], [24], [16], [8], [19], [16], [20], [24], [19], [15], [15], [12], [12], [19], [9], [15], [11], [5], [10], [6], [23], [22], [18], [12], [25], [16], [12], [21], [20]], [[22], [11], [14], [13], [18], [16], [22], [22], [19], [18], [10], [19], [20], [7], [16], [12], [22], [16], [5], [7], [16], [6], [10], [20], [19], [9], [10], [24], [8], [20], [22], [17], [14], [12], [25], [18], [7], [10], [7], [18], [25], [17], [20], [25], [6], [19], [20], [25], [18], [18]], [[12], [21], [15], [8], [19], [8], [21], [18], [16], [16], [23], [5], [16], [12], [20], [20], [14], [14], [10], [21], [12], [20], [14], [11], [22], [21], [22], [6], [24], [21], [22], [21], [10], [9], [10], [22], [13], [20], [7], [7], [21], [11], [22], [7], [17], [22], [21], [12], [22], [24]], [[14], [8], [18], [10], [17], [18], [18], [8], [11], [25], [7], [11], [7], [23], [16], [11], [17], [10], [20], [14], [10], [15], [9], [8], [23], [13], [17], [18], [18], [15], [13], [13], [11], [25], [13], [15], [17], [13], [25], [18], [15], [20], [25], [21], [12], [11], [11], [8], [16], [7]], [[19], [18], [13], [24], [18], [22], [20], [15], [9], [12], [13], [6], [15], [9], [21], [20], [15], [12], [9], [12], [12], [17], [10], [21], [15], [15], [15], [23], [20], [6], [15], [6], [17], [9], [12], [16], [22], [19], [24], [8], [23], [12], [10], [15], [20], [24], [10], [19], [10], [6]], [[18], [12], [25], [22], [11], [22], [12], [17], [16], [6], [13], [11], [9], [14], [11], [8], [13], [13], [6], [19], [15], [20], [16], [18], [6], [11], [23], [9], [24], [8], [5], [9], [16], [24], [7], [13], [20], [24], [22], [18], [19], [18], [18], [16], [22], [10], [7], [18], [18], [5]]];
Q = [[64], [67], [72], [70], [72], [61], [61], [55], [60], [64]];
